\ENCODING=ISO-8859-1
\Problem name: ilog.cplex

Minimize
 obj1: 108998 x1 + 103734 x2 + 109547 x3 + 106114 x4 + 94011 x5 + 104344 x6
       + 104127 x7 + 109404 x8 + 97253 x9 + 97425 x10 + 104646 x11 + 97860 x12
       + 104480 x13 + 105643 x14 + 108350 x15 + 105370 x16 + 100595 x17
       + 93233 x18 + 108023 x19 + 95109 x20 + 102002 x21 + 101270 x22
       + 106945 x23 + 109306 x24 + 108110 x25 + 97088 x26 + 99478 x27
       + 102302 x28 + 99050 x29 + 109788 x30 + 107006 x31 + 93767 x32
       + 92137 x33 + 90078 x34 + 107235 x35 + 100575 x36 + 105738 x37
       + 94571 x38 + 103804 x39 + 92993 x40 + 105928 x41 + 92160 x42
       + 92696 x43 + 93709 x44 + 108693 x45 + 103287 x46 + 92135 x47
       + 96663 x48 + 98428 x49 + 91641 x50 + 92240 x51 + 101571 x52 + 91032 x53
       + 107504 x54 + 99875 x55 + 106875 x56 + 107901 x57 + 94592 x58
       + 97526 x59 + 100689 x60 + 100657 x61 + 97948 x62 + 95628 x63
       + 102703 x64 + 109715 x65 + 101333 x66 + 99975 x67 + 100345 x68
       + 108914 x69 + 95592 x70 + 108562 x71 + 95783 x72 + 109734 x73
       + 94236 x74 + 95796 x75 + 91091 x76 + 100504 x77 + 93846 x78 + 96301 x79
       + 97968 x80 + 96836 x81 + 90036 x82 + 109916 x83 + 94795 x84 + 94162 x85
       + 94004 x86 + 94520 x87 + 90899 x88 + 93665 x89 + 99509 x90 + 93943 x91
       + 95550 x92 + 98759 x93 + 105640 x94 + 104520 x95 + 107519 x96
       + 90947 x97 + 106846 x98 + 95708 x99 + 99954 x100 + 94882 x101
       + 94391 x102 + 92980 x103 + 92350 x104 + 101827 x105 + 97998 x106
       + 101625 x107 + 101616 x108 + 95810 x109 + 109865 x110 + 101704 x111
       + 103890 x112 + 91461 x113 + 92674 x114 + 92851 x115 + 96397 x116
       + 91990 x117 + 97568 x118 + 92395 x119 + 109242 x120 + 94459 x121
       + 95619 x122 + 101971 x123 + 97094 x124 + 96088 x125 + 90879 x126
       + 108181 x127 + 91623 x128 + 90262 x129 + 101175 x130 + 101925 x131
       + 100300 x132 + 105452 x133 + 100608 x134 + 93375 x135 + 105317 x136
       + 105431 x137 + 91223 x138 + 102539 x139 + 100158 x140 + 94991 x141
       + 90335 x142 + 99014 x143 + 100730 x144 + 101759 x145 + 104770 x146
       + 108722 x147 + 102998 x148 + 91797 x149 + 93551 x150 + 96567 x151
       + 109390 x152 + 95072 x153 + 99102 x154 + 108301 x155 + 94869 x156
       + 98078 x157 + 99414 x158 + 102946 x159 + 108424 x160 + 92850 x161
       + 102133 x162 + 90022 x163 + 95471 x164 + 97295 x165 + 97803 x166
       + 98101 x167 + 94002 x168 + 90340 x169 + 93457 x170 + 108307 x171
       + 96285 x172 + 92282 x173 + 102807 x174 + 108989 x175 + 107627 x176
       + 102858 x177 + 100381 x178 + 98258 x179 + 96300 x180 + 107278 x181
       + 108835 x182 + 102081 x183 + 99186 x184 + 91727 x185 + 102001 x186
       + 102169 x187 + 108835 x188 + 96734 x189 + 100145 x190 + 100140 x191
       + 99358 x192 + 99348 x193 + 108460 x194 + 102219 x195 + 90934 x196
       + 93171 x197 + 104990 x198 + 92258 x199 + 105711 x200 + 91489 x201
       + 108971 x202 + 105229 x203 + 105323 x204 + 103803 x205 + 109478 x206
       + 108425 x207 + 102775 x208 + 101908 x209 + 94049 x210 + 106477 x211
       + 90150 x212 + 109627 x213 + 107067 x214 + 108429 x215 + 104603 x216
       + 98169 x217 + 96356 x218 + 98867 x219 + 100455 x220 + 104726 x221
       + 97565 x222 + 91564 x223 + 108970 x224 + 108070 x225 + 97164 x226
       + 103514 x227 + 107888 x228 + 100294 x229 + 109542 x230 + 100241 x231
       + 92693 x232 + 102523 x233 + 98102 x234 + 104744 x235 + 101329 x236
       + 91608 x237 + 100254 x238 + 104440 x239 + 109368 x240 + 94703 x241
       + 101870 x242 + 93179 x243 + 103639 x244 + 109111 x245 + 108005 x246
       + 108690 x247 + 98864 x248 + 95892 x249 + 79612 x250 + 18859 x251
       + 19510 x252 + 21066 x253 + 18880 x254 + 21606 x255 + 20564 x256
       + 19315 x257 + 21415 x258 + 20236 x259 + 18283 x260 + 21361 x261
       + 20534 x262 + 21105 x263 + 21995 x264 + 20407 x265 + 18209 x266
       + 20705 x267 + 21769 x268 + 18586 x269 + 20041 x270 + 21792 x271
       + 19850 x272 + 21954 x273 + 18245 x274 + 18457 x275 + 18630 x276
       + 18088 x277 + 20350 x278 + 21409 x279 + 21929 x280 + 20504 x281
       + 21932 x282 + 20960 x283 + 19055 x284 + 19467 x285 + 18041 x286
       + 18721 x287 + 18117 x288 + 19528 x289 + 18745 x290 + 20024 x291
       + 20492 x292 + 18272 x293 + 19257 x294 + 19328 x295 + 18133 x296
       + 20219 x297 + 18625 x298 + 18624 x299 + 26806 x300
Subject To
 c1:   - x1 - x5 - x6 + x8 + x9 + x13 - x16 - x20 - x21 - x23 + x36 - x43 + x50
        = 0
 c2:   - x51 - x55 - x56 + x58 + x59 + x63 - x66 - x70 - x71 - x73 + x86 - x93
       + x100  = 0
 c3:   - x101 - x105 - x106 + x108 + x109 + x113 - x116 - x120 - x121 - x123
       + x136 - x143 + x150  = 0
 c4:   - x151 - x155 - x156 + x158 + x159 + x163 - x166 - x170 - x171 - x173
       + x186 - x193 + x200  = 0
 c5:   - x201 - x205 - x206 + x208 + x209 + x213 - x216 - x220 - x221 - x223
       + x236 - x243 + x250  = 0
 c6:   - x11 - x12 + x20 + x26 + x27 - x28 + x39 + x41 - x42  = 0
 c7:   - x61 - x62 + x70 + x76 + x77 - x78 + x89 + x91 - x92  = 0
 c8:   - x111 - x112 + x120 + x126 + x127 - x128 + x139 + x141 - x142  = 0
 c9:   - x161 - x162 + x170 + x176 + x177 - x178 + x189 + x191 - x192  = 0
 c10:  - x211 - x212 + x220 + x226 + x227 - x228 + x239 + x241 - x242  = 0
 c11:  - x3 + x23 - x25 - x27 + x29 - x40  = -1
 c12:  - x53 + x73 - x75 - x77 + x79 - x90  = 0
 c13:  - x103 + x123 - x125 - x127 + x129 - x140  = 0
 c14:  - x153 + x173 - x175 - x177 + x179 - x190  = 0
 c15:  - x203 + x223 - x225 - x227 + x229 - x240  = 0
 c16:  - x4 + x6 - x8 - x19 + x24 + x30 + x32 - x33 - x34 + x38 - x44 + x47
        = 0
 c17:  - x54 + x56 - x58 - x69 + x74 + x80 + x82 - x83 - x84 + x88 - x94 + x97
        = 0
 c18:  - x104 + x106 - x108 - x119 + x124 + x130 + x132 - x133 - x134 + x138
       - x144 + x147  = 0
 c19:  - x154 + x156 - x158 - x169 + x174 + x180 + x182 - x183 - x184 + x188
       - x194 + x197  = 0
 c20:  - x204 + x206 - x208 - x219 + x224 + x230 + x232 - x233 - x234 + x238
       - x244 + x247  = 0
 c21:  - x9 + x14 + x22 + x25 - x30 + x35 - x41 + x43 + x44  = 0
 c22:  - x59 + x64 + x72 + x75 - x80 + x85 - x91 + x93 + x94  = 0
 c23:  - x109 + x114 + x122 + x125 - x130 + x135 - x141 + x143 + x144  = 1
 c24:  - x159 + x164 + x172 + x175 - x180 + x185 - x191 + x193 + x194  = 0
 c25:  - x209 + x214 + x222 + x225 - x230 + x235 - x241 + x243 + x244  = 0
 c26:  - x2 + x4 + x10 + x11 - x22 - x26 - x32 + x45 + x46 - x49  = 0
 c27:  - x52 + x54 + x60 + x61 - x72 - x76 - x82 + x95 + x96 - x99  = 0
 c28:  - x102 + x104 + x110 + x111 - x122 - x126 - x132 + x145 + x146 - x149
        = 0
 c29:  - x152 + x154 + x160 + x161 - x172 - x176 - x182 + x195 + x196 - x199
        = 0
 c30:  - x202 + x204 + x210 + x211 - x222 - x226 - x232 + x245 + x246 - x249
        = 1
 c31:  x2 - x13 - x15 + x16 - x17 - x29 - x31 - x35 - x38 + x40  = 0
 c32:  x52 - x63 - x65 + x66 - x67 - x79 - x81 - x85 - x88 + x90  = -1
 c33:  x102 - x113 - x115 + x116 - x117 - x129 - x131 - x135 - x138 + x140  = 0
 c34:  x152 - x163 - x165 + x166 - x167 - x179 - x181 - x185 - x188 + x190  = 0
 c35:  x202 - x213 - x215 + x216 - x217 - x229 - x231 - x235 - x238 + x240  = 0
 c36:  x7 - x14 + x17 - x18 + x19 + x21 - x24 + x28 + x37 - x46  = 0
 c37:  x57 - x64 + x67 - x68 + x69 + x71 - x74 + x78 + x87 - x96  = 0
 c38:  x107 - x114 + x117 - x118 + x119 + x121 - x124 + x128 + x137 - x146  = 0
 c39:  x157 - x164 + x167 - x168 + x169 + x171 - x174 + x178 + x187 - x196
        = -1
 c40:  x207 - x214 + x217 - x218 + x219 + x221 - x224 + x228 + x237 - x246  = 0
 c41:  x1 + x3 - x7 - x10 + x12 + x15 + x34 + x48 + x49 - x50  = 1
 c42:  x51 + x53 - x57 - x60 + x62 + x65 + x84 + x98 + x99 - x100  = 1
 c43:  x101 + x103 - x107 - x110 + x112 + x115 + x134 + x148 + x149 - x150
        = -1
 c44:  x151 + x153 - x157 - x160 + x162 + x165 + x184 + x198 + x199 - x200  = 0
 c45:  x201 + x203 - x207 - x210 + x212 + x215 + x234 + x248 + x249 - x250  = 0
 c46:  x5 + x18 + x31 + x33 - x36 - x37 - x39 + x42 - x45 - x47 - x48  = 0
 c47:  x55 + x68 + x81 + x83 - x86 - x87 - x89 + x92 - x95 - x97 - x98  = 0
 c48:  x105 + x118 + x131 + x133 - x136 - x137 - x139 + x142 - x145 - x147
       - x148  = 0
 c49:  x155 + x168 + x181 + x183 - x186 - x187 - x189 + x192 - x195 - x197
       - x198  = 1
 c50:  x205 + x218 + x231 + x233 - x236 - x237 - x239 + x242 - x245 - x247
       - x248  = -1
 c51:  4 x1 + 4 x51 + 4 x101 + 4 x151 + 4 x201 - 2 x251 <= 0
 c52:  4 x2 + 4 x52 + 4 x102 + 4 x152 + 4 x202 - 2 x252 <= 0
 c53:  4 x3 + 4 x53 + 4 x103 + 4 x153 + 4 x203 - 2 x253 <= 0
 c54:  4 x4 + 4 x54 + 4 x104 + 4 x154 + 4 x204 - 2 x254 <= 0
 c55:  4 x5 + 4 x55 + 4 x105 + 4 x155 + 4 x205 - 2 x255 <= 0
 c56:  4 x6 + 4 x56 + 4 x106 + 4 x156 + 4 x206 - 2 x256 <= 0
 c57:  4 x7 + 4 x57 + 4 x107 + 4 x157 + 4 x207 - 2 x257 <= 0
 c58:  4 x8 + 4 x58 + 4 x108 + 4 x158 + 4 x208 - 2 x258 <= 0
 c59:  4 x9 + 4 x59 + 4 x109 + 4 x159 + 4 x209 - 2 x259 <= 0
 c60:  4 x10 + 4 x60 + 4 x110 + 4 x160 + 4 x210 - 2 x260 <= 0
 c61:  4 x11 + 4 x61 + 4 x111 + 4 x161 + 4 x211 - 2 x261 <= 0
 c62:  4 x12 + 4 x62 + 4 x112 + 4 x162 + 4 x212 - 2 x262 <= 0
 c63:  4 x13 + 4 x63 + 4 x113 + 4 x163 + 4 x213 - 2 x263 <= 0
 c64:  4 x14 + 4 x64 + 4 x114 + 4 x164 + 4 x214 - 2 x264 <= 0
 c65:  4 x15 + 4 x65 + 4 x115 + 4 x165 + 4 x215 - 2 x265 <= 0
 c66:  4 x16 + 4 x66 + 4 x116 + 4 x166 + 4 x216 - 2 x266 <= 0
 c67:  4 x17 + 4 x67 + 4 x117 + 4 x167 + 4 x217 - 2 x267 <= 0
 c68:  4 x18 + 4 x68 + 4 x118 + 4 x168 + 4 x218 - 2 x268 <= 0
 c69:  4 x19 + 4 x69 + 4 x119 + 4 x169 + 4 x219 - 2 x269 <= 0
 c70:  4 x20 + 4 x70 + 4 x120 + 4 x170 + 4 x220 - 2 x270 <= 0
 c71:  4 x21 + 4 x71 + 4 x121 + 4 x171 + 4 x221 - 2 x271 <= 0
 c72:  4 x22 + 4 x72 + 4 x122 + 4 x172 + 4 x222 - 2 x272 <= 0
 c73:  4 x23 + 4 x73 + 4 x123 + 4 x173 + 4 x223 - 2 x273 <= 0
 c74:  4 x24 + 4 x74 + 4 x124 + 4 x174 + 4 x224 - 2 x274 <= 0
 c75:  4 x25 + 4 x75 + 4 x125 + 4 x175 + 4 x225 - 2 x275 <= 0
 c76:  4 x26 + 4 x76 + 4 x126 + 4 x176 + 4 x226 - 2 x276 <= 0
 c77:  4 x27 + 4 x77 + 4 x127 + 4 x177 + 4 x227 - 2 x277 <= 0
 c78:  4 x28 + 4 x78 + 4 x128 + 4 x178 + 4 x228 - 2 x278 <= 0
 c79:  4 x29 + 4 x79 + 4 x129 + 4 x179 + 4 x229 - 2 x279 <= 0
 c80:  4 x30 + 4 x80 + 4 x130 + 4 x180 + 4 x230 - 2 x280 <= 0
 c81:  4 x31 + 4 x81 + 4 x131 + 4 x181 + 4 x231 - 2 x281 <= 0
 c82:  4 x32 + 4 x82 + 4 x132 + 4 x182 + 4 x232 - 2 x282 <= 0
 c83:  4 x33 + 4 x83 + 4 x133 + 4 x183 + 4 x233 - 2 x283 <= 0
 c84:  4 x34 + 4 x84 + 4 x134 + 4 x184 + 4 x234 - 2 x284 <= 0
 c85:  4 x35 + 4 x85 + 4 x135 + 4 x185 + 4 x235 - 2 x285 <= 0
 c86:  4 x36 + 4 x86 + 4 x136 + 4 x186 + 4 x236 - 2 x286 <= 0
 c87:  4 x37 + 4 x87 + 4 x137 + 4 x187 + 4 x237 - 2 x287 <= 0
 c88:  4 x38 + 4 x88 + 4 x138 + 4 x188 + 4 x238 - 2 x288 <= 0
 c89:  4 x39 + 4 x89 + 4 x139 + 4 x189 + 4 x239 - 2 x289 <= 0
 c90:  4 x40 + 4 x90 + 4 x140 + 4 x190 + 4 x240 - 2 x290 <= 0
 c91:  4 x41 + 4 x91 + 4 x141 + 4 x191 + 4 x241 - 2 x291 <= 0
 c92:  4 x42 + 4 x92 + 4 x142 + 4 x192 + 4 x242 - 2 x292 <= 0
 c93:  4 x43 + 4 x93 + 4 x143 + 4 x193 + 4 x243 - 2 x293 <= 0
 c94:  4 x44 + 4 x94 + 4 x144 + 4 x194 + 4 x244 - 2 x294 <= 0
 c95:  4 x45 + 4 x95 + 4 x145 + 4 x195 + 4 x245 - 2 x295 <= 0
 c96:  4 x46 + 4 x96 + 4 x146 + 4 x196 + 4 x246 - 2 x296 <= 0
 c97:  4 x47 + 4 x97 + 4 x147 + 4 x197 + 4 x247 - 2 x297 <= 0
 c98:  4 x48 + 4 x98 + 4 x148 + 4 x198 + 4 x248 - 2 x298 <= 0
 c99:  4 x49 + 4 x99 + 4 x149 + 4 x199 + 4 x249 - 2 x299 <= 0
 c100: 4 x50 + 4 x100 + 4 x150 + 4 x200 + 4 x250 - 2 x300 <= 0
Bounds
 0 <= x1 <= 1
 0 <= x2 <= 1
 0 <= x3 <= 1
 0 <= x4 <= 1
 0 <= x5 <= 1
 0 <= x6 <= 1
 0 <= x7 <= 1
 0 <= x8 <= 1
 0 <= x9 <= 1
 0 <= x10 <= 1
 0 <= x11 <= 1
 0 <= x12 <= 1
 0 <= x13 <= 1
 0 <= x14 <= 1
 0 <= x15 <= 1
 0 <= x16 <= 1
 0 <= x17 <= 1
 0 <= x18 <= 1
 0 <= x19 <= 1
 0 <= x20 <= 1
 0 <= x21 <= 1
 0 <= x22 <= 1
 0 <= x23 <= 1
 0 <= x24 <= 1
 0 <= x25 <= 1
 0 <= x26 <= 1
 0 <= x27 <= 1
 0 <= x28 <= 1
 0 <= x29 <= 1
 0 <= x30 <= 1
 0 <= x31 <= 1
 0 <= x32 <= 1
 0 <= x33 <= 1
 0 <= x34 <= 1
 0 <= x35 <= 1
 0 <= x36 <= 1
 0 <= x37 <= 1
 0 <= x38 <= 1
 0 <= x39 <= 1
 0 <= x40 <= 1
 0 <= x41 <= 1
 0 <= x42 <= 1
 0 <= x43 <= 1
 0 <= x44 <= 1
 0 <= x45 <= 1
 0 <= x46 <= 1
 0 <= x47 <= 1
 0 <= x48 <= 1
 0 <= x49 <= 1
 0 <= x50 <= 1
 0 <= x51 <= 1
 0 <= x52 <= 1
 0 <= x53 <= 1
 0 <= x54 <= 1
 0 <= x55 <= 1
 0 <= x56 <= 1
 0 <= x57 <= 1
 0 <= x58 <= 1
 0 <= x59 <= 1
 0 <= x60 <= 1
 0 <= x61 <= 1
 0 <= x62 <= 1
 0 <= x63 <= 1
 0 <= x64 <= 1
 0 <= x65 <= 1
 0 <= x66 <= 1
 0 <= x67 <= 1
 0 <= x68 <= 1
 0 <= x69 <= 1
 0 <= x70 <= 1
 0 <= x71 <= 1
 0 <= x72 <= 1
 0 <= x73 <= 1
 0 <= x74 <= 1
 0 <= x75 <= 1
 0 <= x76 <= 1
 0 <= x77 <= 1
 0 <= x78 <= 1
 0 <= x79 <= 1
 0 <= x80 <= 1
 0 <= x81 <= 1
 0 <= x82 <= 1
 0 <= x83 <= 1
 0 <= x84 <= 1
 0 <= x85 <= 1
 0 <= x86 <= 1
 0 <= x87 <= 1
 0 <= x88 <= 1
 0 <= x89 <= 1
 0 <= x90 <= 1
 0 <= x91 <= 1
 0 <= x92 <= 1
 0 <= x93 <= 1
 0 <= x94 <= 1
 0 <= x95 <= 1
 0 <= x96 <= 1
 0 <= x97 <= 1
 0 <= x98 <= 1
 0 <= x99 <= 1
 0 <= x100 <= 1
 0 <= x101 <= 1
 0 <= x102 <= 1
 0 <= x103 <= 1
 0 <= x104 <= 1
 0 <= x105 <= 1
 0 <= x106 <= 1
 0 <= x107 <= 1
 0 <= x108 <= 1
 0 <= x109 <= 1
 0 <= x110 <= 1
 0 <= x111 <= 1
 0 <= x112 <= 1
 0 <= x113 <= 1
 0 <= x114 <= 1
 0 <= x115 <= 1
 0 <= x116 <= 1
 0 <= x117 <= 1
 0 <= x118 <= 1
 0 <= x119 <= 1
 0 <= x120 <= 1
 0 <= x121 <= 1
 0 <= x122 <= 1
 0 <= x123 <= 1
 0 <= x124 <= 1
 0 <= x125 <= 1
 0 <= x126 <= 1
 0 <= x127 <= 1
 0 <= x128 <= 1
 0 <= x129 <= 1
 0 <= x130 <= 1
 0 <= x131 <= 1
 0 <= x132 <= 1
 0 <= x133 <= 1
 0 <= x134 <= 1
 0 <= x135 <= 1
 0 <= x136 <= 1
 0 <= x137 <= 1
 0 <= x138 <= 1
 0 <= x139 <= 1
 0 <= x140 <= 1
 0 <= x141 <= 1
 0 <= x142 <= 1
 0 <= x143 <= 1
 0 <= x144 <= 1
 0 <= x145 <= 1
 0 <= x146 <= 1
 0 <= x147 <= 1
 0 <= x148 <= 1
 0 <= x149 <= 1
 0 <= x150 <= 1
 0 <= x151 <= 1
 0 <= x152 <= 1
 0 <= x153 <= 1
 0 <= x154 <= 1
 0 <= x155 <= 1
 0 <= x156 <= 1
 0 <= x157 <= 1
 0 <= x158 <= 1
 0 <= x159 <= 1
 0 <= x160 <= 1
 0 <= x161 <= 1
 0 <= x162 <= 1
 0 <= x163 <= 1
 0 <= x164 <= 1
 0 <= x165 <= 1
 0 <= x166 <= 1
 0 <= x167 <= 1
 0 <= x168 <= 1
 0 <= x169 <= 1
 0 <= x170 <= 1
 0 <= x171 <= 1
 0 <= x172 <= 1
 0 <= x173 <= 1
 0 <= x174 <= 1
 0 <= x175 <= 1
 0 <= x176 <= 1
 0 <= x177 <= 1
 0 <= x178 <= 1
 0 <= x179 <= 1
 0 <= x180 <= 1
 0 <= x181 <= 1
 0 <= x182 <= 1
 0 <= x183 <= 1
 0 <= x184 <= 1
 0 <= x185 <= 1
 0 <= x186 <= 1
 0 <= x187 <= 1
 0 <= x188 <= 1
 0 <= x189 <= 1
 0 <= x190 <= 1
 0 <= x191 <= 1
 0 <= x192 <= 1
 0 <= x193 <= 1
 0 <= x194 <= 1
 0 <= x195 <= 1
 0 <= x196 <= 1
 0 <= x197 <= 1
 0 <= x198 <= 1
 0 <= x199 <= 1
 0 <= x200 <= 1
 0 <= x201 <= 1
 0 <= x202 <= 1
 0 <= x203 <= 1
 0 <= x204 <= 1
 0 <= x205 <= 1
 0 <= x206 <= 1
 0 <= x207 <= 1
 0 <= x208 <= 1
 0 <= x209 <= 1
 0 <= x210 <= 1
 0 <= x211 <= 1
 0 <= x212 <= 1
 0 <= x213 <= 1
 0 <= x214 <= 1
 0 <= x215 <= 1
 0 <= x216 <= 1
 0 <= x217 <= 1
 0 <= x218 <= 1
 0 <= x219 <= 1
 0 <= x220 <= 1
 0 <= x221 <= 1
 0 <= x222 <= 1
 0 <= x223 <= 1
 0 <= x224 <= 1
 0 <= x225 <= 1
 0 <= x226 <= 1
 0 <= x227 <= 1
 0 <= x228 <= 1
 0 <= x229 <= 1
 0 <= x230 <= 1
 0 <= x231 <= 1
 0 <= x232 <= 1
 0 <= x233 <= 1
 0 <= x234 <= 1
 0 <= x235 <= 1
 0 <= x236 <= 1
 0 <= x237 <= 1
 0 <= x238 <= 1
 0 <= x239 <= 1
 0 <= x240 <= 1
 0 <= x241 <= 1
 0 <= x242 <= 1
 0 <= x243 <= 1
 0 <= x244 <= 1
 0 <= x245 <= 1
 0 <= x246 <= 1
 0 <= x247 <= 1
 0 <= x248 <= 1
 0 <= x249 <= 1
 0 <= x250 <= 1
 0 <= x251 <= 1
 0 <= x252 <= 1
 0 <= x253 <= 1
 0 <= x254 <= 1
 0 <= x255 <= 1
 0 <= x256 <= 1
 0 <= x257 <= 1
 0 <= x258 <= 1
 0 <= x259 <= 1
 0 <= x260 <= 1
 0 <= x261 <= 1
 0 <= x262 <= 1
 0 <= x263 <= 1
 0 <= x264 <= 1
 0 <= x265 <= 1
 0 <= x266 <= 1
 0 <= x267 <= 1
 0 <= x268 <= 1
 0 <= x269 <= 1
 0 <= x270 <= 1
 0 <= x271 <= 1
 0 <= x272 <= 1
 0 <= x273 <= 1
 0 <= x274 <= 1
 0 <= x275 <= 1
 0 <= x276 <= 1
 0 <= x277 <= 1
 0 <= x278 <= 1
 0 <= x279 <= 1
 0 <= x280 <= 1
 0 <= x281 <= 1
 0 <= x282 <= 1
 0 <= x283 <= 1
 0 <= x284 <= 1
 0 <= x285 <= 1
 0 <= x286 <= 1
 0 <= x287 <= 1
 0 <= x288 <= 1
 0 <= x289 <= 1
 0 <= x290 <= 1
 0 <= x291 <= 1
 0 <= x292 <= 1
 0 <= x293 <= 1
 0 <= x294 <= 1
 0 <= x295 <= 1
 0 <= x296 <= 1
 0 <= x297 <= 1
 0 <= x298 <= 1
 0 <= x299 <= 1
 0 <= x300 <= 1
Binaries
 x251  x252  x253  x254  x255  x256  x257  x258  x259  x260  x261  x262  x263 
 x264  x265  x266  x267  x268  x269  x270  x271  x272  x273  x274  x275  x276 
 x277  x278  x279  x280  x281  x282  x283  x284  x285  x286  x287  x288  x289 
 x290  x291  x292  x293  x294  x295  x296  x297  x298  x299  x300 
End
